Route #1: 88 57 2 119 81 89 112 136 76 153 5 47
Route #2: 75 16 65 87 97 62 142 128 26 120 14 49
Route #3: 101 27 44 124 130 104 127 145 46 19 116 37
Route #4: 41 110 54 121 21 135 73 106 3 42 32 143
Route #5: 151 113 82 11 77 45 83 90 51 100 91 129
Route #6: 17 67 4 35 6 115 55 95 105 152 56 61
Route #7: 131 133 50 154 98 123 53 144 85 140 31 23
Route #8: 18 107 52 134 10 39 58 29 114 109 60 12
Route #9: 34 138 25 155 22 30 74 79 84 33 48 72
Route #10: 70 139 125 78 146 80 40 108 9 117 1 126
Route #11: 148 13 63 64 141 43 24 156 150 8 149 71
Route #12: 59 96 102 111 132 86 94 66 28 7 137 92
Route #13: 38 122 69 99 93 103 36 68 20 118 147 15
Cost 16876.000000